c FILE /home/rafael/Documents/HappySet/MIHS/inputs/happygen/output/graph_scale_free_k7_p0.2_v50_20241127_082456.txt
c SOURCE This is a scale-free graph formed for the happy graph colouring problem.
c DESCRIPTION It was generated using the problem generator of Rhyd Lewis
c
c GRAPH STATS
c Seed                             = 1576118702
c Number of Nodes                  = 50
c Number of colours k              = 7
c Number of pre-assignments        = 10
c Number of links per new node     = 5
c Density                          = 0.191837
c 
c The degrees of nodes 1 to 50, respectively, are as follows 
c [29, 27, 25, 22, 19, 17, 16, 16, 14, 12, 12, 10, 10, 10, 10, 9, 9, 8, 8, 8, 8, 8, 8, 8, 7, 7, 
c  7, 7, 7, 6, 6, 6, 6, 6, 6, 6, 5, 5, 5, 5, 5, 5, 5, 5, 5, 5, 5, 5, 5, 5] 
c  
p edge 50 235 7
e 1 2
e 1 3
e 1 4
e 1 5
e 1 6
e 1 7
e 1 8
e 1 9
e 1 10
e 1 13
e 1 14
e 1 18
e 1 19
e 1 20
e 1 21
e 1 23
e 1 24
e 1 25
e 1 26
e 1 30
e 1 31
e 1 35
e 1 38
e 1 39
e 1 40
e 1 45
e 1 47
e 1 49
e 1 50
e 2 3
e 2 4
e 2 5
e 2 6
e 2 7
e 2 8
e 2 9
e 2 10
e 2 11
e 2 12
e 2 14
e 2 15
e 2 17
e 2 18
e 2 20
e 2 22
e 2 25
e 2 26
e 2 27
e 2 30
e 2 31
e 2 36
e 2 41
e 2 43
e 2 48
e 2 50
e 3 4
e 3 5
e 3 6
e 3 7
e 3 8
e 3 9
e 3 10
e 3 11
e 3 13
e 3 15
e 3 16
e 3 17
e 3 20
e 3 26
e 3 32
e 3 36
e 3 37
e 3 39
e 3 40
e 3 41
e 3 42
e 3 45
e 3 48
e 4 5
e 4 6
e 4 7
e 4 8
e 4 9
e 4 10
e 4 13
e 4 14
e 4 15
e 4 18
e 4 21
e 4 25
e 4 27
e 4 28
e 4 38
e 4 40
e 4 45
e 4 46
e 4 47
e 5 6
e 5 8
e 5 10
e 5 13
e 5 16
e 5 22
e 5 23
e 5 26
e 5 27
e 5 28
e 5 29
e 5 31
e 5 32
e 5 37
e 5 47
e 6 11
e 6 14
e 6 16
e 6 19
e 6 21
e 6 24
e 6 27
e 6 29
e 6 30
e 6 37
e 6 44
e 6 50
e 7 8
e 7 12
e 7 17
e 7 18
e 7 19
e 7 22
e 7 23
e 7 26
e 7 32
e 7 39
e 7 47
e 7 49
e 8 9
e 8 12
e 8 18
e 8 20
e 8 22
e 8 28
e 8 37
e 8 42
e 8 44
e 8 46
e 9 11
e 9 12
e 9 13
e 9 14
e 9 25
e 9 29
e 9 32
e 9 42
e 9 48
e 10 12
e 10 16
e 10 21
e 10 25
e 10 28
e 10 33
e 10 36
e 11 14
e 11 15
e 11 24
e 11 33
e 11 44
e 11 46
e 11 49
e 11 50
e 12 19
e 12 23
e 12 24
e 12 33
e 12 46
e 13 15
e 13 20
e 13 23
e 13 38
e 13 44
e 14 35
e 14 37
e 14 39
e 14 43
e 15 16
e 15 17
e 15 30
e 15 33
e 15 34
e 16 34
e 16 35
e 16 39
e 16 49
e 17 27
e 17 29
e 17 43
e 17 46
e 17 47
e 18 19
e 18 33
e 18 34
e 19 24
e 19 30
e 19 38
e 20 22
e 20 31
e 20 34
e 21 25
e 21 27
e 21 34
e 21 35
e 22 36
e 22 38
e 22 40
e 23 31
e 23 41
e 23 43
e 24 35
e 24 36
e 24 41
e 25 40
e 26 29
e 26 32
e 27 28
e 28 42
e 28 48
e 29 42
e 29 43
e 30 41
e 31 44
e 32 45
e 33 45
e 34 49
e 35 48
e 36 50
n 17 6
n 23 3
n 24 4
n 25 1
n 29 6
n 31 3
n 37 1
n 38 5
n 49 7
n 50 2
